(set-logic QF_LRA)
(declare-fun T1 () Real )
(declare-fun T2 () Real )
(declare-fun T3 () Real )
(declare-fun T4 () Real )
(declare-fun T5 () Real )
(declare-fun T6 () Real )
(declare-fun Z () Real )
(declare-fun k () Real )
(assert (let
(( $goal (>= Z k) ))
(let
((
$phi ( and 
(or ( <= ( + T1 70 ) T2 ) ( <= ( + T2 91 ) T1 ) )
(or ( <= ( + T1 129 )  ( + T2 91 ) ) ( <= ( + T2 173 )( + T1 70 ) ) )
(or ( <= ( + T1 190 )  ( + T2 173 ) ) ( <= ( + T2 241 )( + T1 129 ) ) )
(or ( <= ( + T1 228 )  ( + T2 241 ) ) ( <= ( + T2 257 )( + T1 190 ) ) )
(or ( <= ( + T1 263 )  ( + T2 257 ) ) ( <= ( + T2 351 )( + T1 228 ) ) )
(or ( <= ( + T1 301 )  ( + T2 351 ) ) ( <= ( + T2 415 )( + T1 263 ) ) )
(or ( <= ( + T1 366 )  ( + T2 415 ) ) ( <= ( + T2 475 )( + T1 301 ) ) )
(or ( <= ( + T1 417 )  ( + T2 475 ) ) ( <= ( + T2 523 )( + T1 366 ) ) )
(or ( <= ( + T1 70 ) T3 ) ( <= ( + T3 1 ) T1 ) )
(or ( <= ( + T1 129 )  ( + T3 1 ) ) ( <= ( + T3 15 )( + T1 70 ) ) )
(or ( <= ( + T1 190 )  ( + T3 15 ) ) ( <= ( + T3 90 )( + T1 129 ) ) )
(or ( <= ( + T1 228 )  ( + T3 90 ) ) ( <= ( + T3 125 )( + T1 190 ) ) )
(or ( <= ( + T1 263 )  ( + T3 125 ) ) ( <= ( + T3 210 )( + T1 228 ) ) )
(or ( <= ( + T1 301 )  ( + T3 210 ) ) ( <= ( + T3 276 )( + T1 263 ) ) )
(or ( <= ( + T1 366 )  ( + T3 276 ) ) ( <= ( + T3 305 )( + T1 301 ) ) )
(or ( <= ( + T1 417 )  ( + T3 305 ) ) ( <= ( + T3 367 )( + T1 366 ) ) )
(or ( <= ( + T1 70 ) T4 ) ( <= ( + T4 57 ) T1 ) )
(or ( <= ( + T1 129 )  ( + T4 57 ) ) ( <= ( + T4 69 )( + T1 70 ) ) )
(or ( <= ( + T1 190 )  ( + T4 69 ) ) ( <= ( + T4 164 )( + T1 129 ) ) )
(or ( <= ( + T1 228 )  ( + T4 164 ) ) ( <= ( + T4 210 )( + T1 190 ) ) )
(or ( <= ( + T1 263 )  ( + T4 210 ) ) ( <= ( + T4 257 )( + T1 228 ) ) )
(or ( <= ( + T1 301 )  ( + T4 257 ) ) ( <= ( + T4 278 )( + T1 263 ) ) )
(or ( <= ( + T1 366 )  ( + T4 278 ) ) ( <= ( + T4 319 )( + T1 301 ) ) )
(or ( <= ( + T1 417 )  ( + T4 319 ) ) ( <= ( + T4 387 )( + T1 366 ) ) )
(or ( <= ( + T1 70 ) T5 ) ( <= ( + T5 32 ) T1 ) )
(or ( <= ( + T1 129 )  ( + T5 32 ) ) ( <= ( + T5 33 )( + T1 70 ) ) )
(or ( <= ( + T1 190 )  ( + T5 33 ) ) ( <= ( + T5 39 )( + T1 129 ) ) )
(or ( <= ( + T1 228 )  ( + T5 39 ) ) ( <= ( + T5 105 )( + T1 190 ) ) )
(or ( <= ( + T1 263 )  ( + T5 105 ) ) ( <= ( + T5 195 )( + T1 228 ) ) )
(or ( <= ( + T1 301 )  ( + T5 195 ) ) ( <= ( + T5 265 )( + T1 263 ) ) )
(or ( <= ( + T1 366 )  ( + T5 265 ) ) ( <= ( + T5 281 )( + T1 301 ) ) )
(or ( <= ( + T1 417 )  ( + T5 281 ) ) ( <= ( + T5 361 )( + T1 366 ) ) )
(or ( <= ( + T1 70 ) T6 ) ( <= ( + T6 52 ) T1 ) )
(or ( <= ( + T1 129 )  ( + T6 52 ) ) ( <= ( + T6 87 )( + T1 70 ) ) )
(or ( <= ( + T1 190 )  ( + T6 87 ) ) ( <= ( + T6 134 )( + T1 129 ) ) )
(or ( <= ( + T1 228 )  ( + T6 134 ) ) ( <= ( + T6 231 )( + T1 190 ) ) )
(or ( <= ( + T1 263 )  ( + T6 231 ) ) ( <= ( + T6 281 )( + T1 228 ) ) )
(or ( <= ( + T1 301 )  ( + T6 281 ) ) ( <= ( + T6 340 )( + T1 263 ) ) )
(or ( <= ( + T1 366 )  ( + T6 340 ) ) ( <= ( + T6 436 )( + T1 301 ) ) )
(or ( <= ( + T1 417 )  ( + T6 436 ) ) ( <= ( + T6 486 )( + T1 366 ) ) )
(or ( <= ( + T2 91 ) T3 ) ( <= ( + T3 1 ) T2 ) )
(or ( <= ( + T2 173 )  ( + T3 1 ) ) ( <= ( + T3 15 )( + T2 91 ) ) )
(or ( <= ( + T2 241 )  ( + T3 15 ) ) ( <= ( + T3 90 )( + T2 173 ) ) )
(or ( <= ( + T2 257 )  ( + T3 90 ) ) ( <= ( + T3 125 )( + T2 241 ) ) )
(or ( <= ( + T2 351 )  ( + T3 125 ) ) ( <= ( + T3 210 )( + T2 257 ) ) )
(or ( <= ( + T2 415 )  ( + T3 210 ) ) ( <= ( + T3 276 )( + T2 351 ) ) )
(or ( <= ( + T2 475 )  ( + T3 276 ) ) ( <= ( + T3 305 )( + T2 415 ) ) )
(or ( <= ( + T2 523 )  ( + T3 305 ) ) ( <= ( + T3 367 )( + T2 475 ) ) )
(or ( <= ( + T2 91 ) T4 ) ( <= ( + T4 57 ) T2 ) )
(or ( <= ( + T2 173 )  ( + T4 57 ) ) ( <= ( + T4 69 )( + T2 91 ) ) )
(or ( <= ( + T2 241 )  ( + T4 69 ) ) ( <= ( + T4 164 )( + T2 173 ) ) )
(or ( <= ( + T2 257 )  ( + T4 164 ) ) ( <= ( + T4 210 )( + T2 241 ) ) )
(or ( <= ( + T2 351 )  ( + T4 210 ) ) ( <= ( + T4 257 )( + T2 257 ) ) )
(or ( <= ( + T2 415 )  ( + T4 257 ) ) ( <= ( + T4 278 )( + T2 351 ) ) )
(or ( <= ( + T2 475 )  ( + T4 278 ) ) ( <= ( + T4 319 )( + T2 415 ) ) )
(or ( <= ( + T2 523 )  ( + T4 319 ) ) ( <= ( + T4 387 )( + T2 475 ) ) )
(or ( <= ( + T2 91 ) T5 ) ( <= ( + T5 32 ) T2 ) )
(or ( <= ( + T2 173 )  ( + T5 32 ) ) ( <= ( + T5 33 )( + T2 91 ) ) )
(or ( <= ( + T2 241 )  ( + T5 33 ) ) ( <= ( + T5 39 )( + T2 173 ) ) )
(or ( <= ( + T2 257 )  ( + T5 39 ) ) ( <= ( + T5 105 )( + T2 241 ) ) )
(or ( <= ( + T2 351 )  ( + T5 105 ) ) ( <= ( + T5 195 )( + T2 257 ) ) )
(or ( <= ( + T2 415 )  ( + T5 195 ) ) ( <= ( + T5 265 )( + T2 351 ) ) )
(or ( <= ( + T2 475 )  ( + T5 265 ) ) ( <= ( + T5 281 )( + T2 415 ) ) )
(or ( <= ( + T2 523 )  ( + T5 281 ) ) ( <= ( + T5 361 )( + T2 475 ) ) )
(or ( <= ( + T2 91 ) T6 ) ( <= ( + T6 52 ) T2 ) )
(or ( <= ( + T2 173 )  ( + T6 52 ) ) ( <= ( + T6 87 )( + T2 91 ) ) )
(or ( <= ( + T2 241 )  ( + T6 87 ) ) ( <= ( + T6 134 )( + T2 173 ) ) )
(or ( <= ( + T2 257 )  ( + T6 134 ) ) ( <= ( + T6 231 )( + T2 241 ) ) )
(or ( <= ( + T2 351 )  ( + T6 231 ) ) ( <= ( + T6 281 )( + T2 257 ) ) )
(or ( <= ( + T2 415 )  ( + T6 281 ) ) ( <= ( + T6 340 )( + T2 351 ) ) )
(or ( <= ( + T2 475 )  ( + T6 340 ) ) ( <= ( + T6 436 )( + T2 415 ) ) )
(or ( <= ( + T2 523 )  ( + T6 436 ) ) ( <= ( + T6 486 )( + T2 475 ) ) )
(or ( <= ( + T3 1 ) T4 ) ( <= ( + T4 57 ) T3 ) )
(or ( <= ( + T3 15 )  ( + T4 57 ) ) ( <= ( + T4 69 )( + T3 1 ) ) )
(or ( <= ( + T3 90 )  ( + T4 69 ) ) ( <= ( + T4 164 )( + T3 15 ) ) )
(or ( <= ( + T3 125 )  ( + T4 164 ) ) ( <= ( + T4 210 )( + T3 90 ) ) )
(or ( <= ( + T3 210 )  ( + T4 210 ) ) ( <= ( + T4 257 )( + T3 125 ) ) )
(or ( <= ( + T3 276 )  ( + T4 257 ) ) ( <= ( + T4 278 )( + T3 210 ) ) )
(or ( <= ( + T3 305 )  ( + T4 278 ) ) ( <= ( + T4 319 )( + T3 276 ) ) )
(or ( <= ( + T3 367 )  ( + T4 319 ) ) ( <= ( + T4 387 )( + T3 305 ) ) )
(or ( <= ( + T3 1 ) T5 ) ( <= ( + T5 32 ) T3 ) )
(or ( <= ( + T3 15 )  ( + T5 32 ) ) ( <= ( + T5 33 )( + T3 1 ) ) )
(or ( <= ( + T3 90 )  ( + T5 33 ) ) ( <= ( + T5 39 )( + T3 15 ) ) )
(or ( <= ( + T3 125 )  ( + T5 39 ) ) ( <= ( + T5 105 )( + T3 90 ) ) )
(or ( <= ( + T3 210 )  ( + T5 105 ) ) ( <= ( + T5 195 )( + T3 125 ) ) )
(or ( <= ( + T3 276 )  ( + T5 195 ) ) ( <= ( + T5 265 )( + T3 210 ) ) )
(or ( <= ( + T3 305 )  ( + T5 265 ) ) ( <= ( + T5 281 )( + T3 276 ) ) )
(or ( <= ( + T3 367 )  ( + T5 281 ) ) ( <= ( + T5 361 )( + T3 305 ) ) )
(or ( <= ( + T3 1 ) T6 ) ( <= ( + T6 52 ) T3 ) )
(or ( <= ( + T3 15 )  ( + T6 52 ) ) ( <= ( + T6 87 )( + T3 1 ) ) )
(or ( <= ( + T3 90 )  ( + T6 87 ) ) ( <= ( + T6 134 )( + T3 15 ) ) )
(or ( <= ( + T3 125 )  ( + T6 134 ) ) ( <= ( + T6 231 )( + T3 90 ) ) )
(or ( <= ( + T3 210 )  ( + T6 231 ) ) ( <= ( + T6 281 )( + T3 125 ) ) )
(or ( <= ( + T3 276 )  ( + T6 281 ) ) ( <= ( + T6 340 )( + T3 210 ) ) )
(or ( <= ( + T3 305 )  ( + T6 340 ) ) ( <= ( + T6 436 )( + T3 276 ) ) )
(or ( <= ( + T3 367 )  ( + T6 436 ) ) ( <= ( + T6 486 )( + T3 305 ) ) )
(or ( <= ( + T4 57 ) T5 ) ( <= ( + T5 32 ) T4 ) )
(or ( <= ( + T4 69 )  ( + T5 32 ) ) ( <= ( + T5 33 )( + T4 57 ) ) )
(or ( <= ( + T4 164 )  ( + T5 33 ) ) ( <= ( + T5 39 )( + T4 69 ) ) )
(or ( <= ( + T4 210 )  ( + T5 39 ) ) ( <= ( + T5 105 )( + T4 164 ) ) )
(or ( <= ( + T4 257 )  ( + T5 105 ) ) ( <= ( + T5 195 )( + T4 210 ) ) )
(or ( <= ( + T4 278 )  ( + T5 195 ) ) ( <= ( + T5 265 )( + T4 257 ) ) )
(or ( <= ( + T4 319 )  ( + T5 265 ) ) ( <= ( + T5 281 )( + T4 278 ) ) )
(or ( <= ( + T4 387 )  ( + T5 281 ) ) ( <= ( + T5 361 )( + T4 319 ) ) )
(or ( <= ( + T4 57 ) T6 ) ( <= ( + T6 52 ) T4 ) )
(or ( <= ( + T4 69 )  ( + T6 52 ) ) ( <= ( + T6 87 )( + T4 57 ) ) )
(or ( <= ( + T4 164 )  ( + T6 87 ) ) ( <= ( + T6 134 )( + T4 69 ) ) )
(or ( <= ( + T4 210 )  ( + T6 134 ) ) ( <= ( + T6 231 )( + T4 164 ) ) )
(or ( <= ( + T4 257 )  ( + T6 231 ) ) ( <= ( + T6 281 )( + T4 210 ) ) )
(or ( <= ( + T4 278 )  ( + T6 281 ) ) ( <= ( + T6 340 )( + T4 257 ) ) )
(or ( <= ( + T4 319 )  ( + T6 340 ) ) ( <= ( + T6 436 )( + T4 278 ) ) )
(or ( <= ( + T4 387 )  ( + T6 436 ) ) ( <= ( + T6 486 )( + T4 319 ) ) )
(or ( <= ( + T5 32 ) T6 ) ( <= ( + T6 52 ) T5 ) )
(or ( <= ( + T5 33 )  ( + T6 52 ) ) ( <= ( + T6 87 )( + T5 32 ) ) )
(or ( <= ( + T5 39 )  ( + T6 87 ) ) ( <= ( + T6 134 )( + T5 33 ) ) )
(or ( <= ( + T5 105 )  ( + T6 134 ) ) ( <= ( + T6 231 )( + T5 39 ) ) )
(or ( <= ( + T5 195 )  ( + T6 231 ) ) ( <= ( + T6 281 )( + T5 105 ) ) )
(or ( <= ( + T5 265 )  ( + T6 281 ) ) ( <= ( + T6 340 )( + T5 195 ) ) )
(or ( <= ( + T5 281 )  ( + T6 340 ) ) ( <= ( + T6 436 )( + T5 265 ) ) )
(or ( <= ( + T5 361 )  ( + T6 436 ) ) ( <= ( + T6 486 )( + T5 281 ) ) )
( <= ( + T1 417 ) Z)
( <= ( + T2 523 ) Z)
( <= ( + T3 367 ) Z)
( <= ( + T4 387 ) Z)
( <= ( + T5 361 ) Z)
( <= ( + T6 486 ) Z)
( >= T1 0 )
( >= T2 0 )
( >= T3 0 )
( >= T4 0 )
( >= T5 0 )
( >= T6 0 )
) )
)(=> $phi $goal))))